&CONTROL
  calculation = 'scf',
/
&SYSTEM
  ibrav = 0,
  nat = 2,
  ntyp = 2,
/
&ELECTRONS
/
&IONS
/
&CELL
/
ATOMIC_SPECIES
  Mg  24.3050 Mg_ONCV_PBE-1.2.upf
  O  15.9994 O_ONCV_PBE-1.2.upf
ATOMIC_POSITIONS crystal
  Mg 0.000000 0.000000 0.000000
  O 0.500000 0.500000 0.500000
K_POINTS crystal_b
 10
 0.0000 0.0000 0.0000
 0.5000 0.0000 0.5000
 0.5000 0.2500 0.7500
 0.3750 0.3750 0.7500
 0.0000 0.0000 0.0000
 0.5000 0.5000 0.5000
 0.6250 0.2500 0.6250
 0.5000 0.2500 0.7500
 0.5000 0.5000 0.5000
 0.3750 0.3750 0.7500
CELL_PARAMETERS angstrom
  0.000000 2.108500 2.108500
  2.108500 0.000000 2.108500
  2.108500 2.108500 0.000000