&CONTROL
  calculation = 'scf',
  pseudo_dir = './'
/
&SYSTEM
  input_dft = 'PBE'		! XC functional
  nat = 8,
  ntyp = 2,
  ibrav = 0
  ecutwfc = 60
  nspin = 1
/
&ELECTRONS
/
&IONS
/
&CELL
/
ATOMIC_SPECIES
  Mg  24.3050 Mg_ONCV_PBE-1.2.upf
  O  15.9994 O_ONCV_PBE-1.2.upf
ATOMIC_POSITIONS crystal
  Mg 0.000000 0.000000 0.000000
  Mg 0.000000 0.500000 0.500000
  Mg 0.500000 0.000000 0.500000
  Mg 0.500000 0.500000 0.000000
  O 0.500000 0.500000 0.500000
  O 0.500000 0.000000 0.000000
  O 0.000000 0.500000 0.000000
  O 0.000000 0.000000 0.500000
K_POINTS automatic
  1 1 1 0 0 0
CELL_PARAMETERS angstrom
  4.217000 0.000000 0.000000
  0.000000 4.217000 0.000000
  0.000000 0.000000 4.217000
