&control
    calculation='vc-relax'
    prefix='LSCO'
    outdir='./'
    pseudo_dir = '/global/cscratch1/sd/yjshin90/Cobalt_OOV/PP',
    !verbosity = 'high'
    etot_conv_thr = 1.0D-4
    forc_conv_thr = 2.0D-3
    !disk_io='low'
    max_seconds=82800
    wf_collect=.FALSE.
    !tstress=.true.
    !restart_mode='restart'
 /
 &system
    ibrav=0
    nat=36, ntyp=3,
    ecutwfc = 90 , ecutrho =720, !for PAW ecutrho=4*ecutwfc, but need test
    occupations='smearing', smearing='gauss', degauss=0.0100
    lda_plus_u=.true.  Hubbard_U(2)=3, Hubbard_U(3)=3
    nspin=2
    starting_magnetization(2)=0.4, starting_magnetization(3)=-0.4
    nbnd = 240
    tot_magnetization = 0
 /
 &electrons
 !conv_thr = 1.0D-7
 electron_maxstep = 500
 mixing_mode='plain'
 mixing_beta=0.5D0
 mixing_fixed_ns=5
 startingpot='file'
 diagonalization ='cg'
/
 &ions
/
 &cell
 cell_dofree='xyz'
/
ATOMIC_SPECIES
 Sr 87.62 Sr.pbe-spn-kjpaw_psl.1.0.0.UPF
 Co 58.9332 Co.pbe-spn-kjpaw_psl.0.3.1.UPF
 O  16 O.pbe-n-kjpaw_psl.1.0.0.UPF
CELL_PARAMETERS angstrom
5.42193984990000 0.00000000000000 0.00000000000000
0.00000000000000 14.73169994350000 0.00000000000000
0.00000000000000 0.00000000000000 5.58759021760000
ATOMIC_POSITIONS angstrom
Sr 5.3000002871 1.5905816282 2.6686889191
Sr 0.1219395628 13.1411183153 2.9189012985
Sr 2.5890303622 13.1411183153 0.1251061897
Sr 2.8329094877 1.5905816282 5.4624840279
Sr 0.1219395628 8.9564315999 2.9189012985
Sr 5.3000002871 5.7752683436 2.6686889191
Sr 2.8329094877 5.7752683436 5.4624840279
Sr 2.5890303622 8.9564315999 0.1251061897
Co  0.0000000000 0.0000000000 0.0000000000
Co  2.7109699250 0.0000000000 2.7937951088
Co  0.0000000000 7.3658499718 0.0000000000
Co  2.7109699250 7.3658499718 2.7937951088
Co  0.3602336890 3.6829249859 5.2887101118
Co  5.0617062422 11.0487749576 0.2988801058
Co  3.0712035327 11.0487749576 3.0926752146
Co  2.3507363172 3.6829249859 2.4949150030
O 4.1513624004 14.4849442935 1.4841198880
O 1.2705774495 0.2467556500 4.1034704917
O 1.4403924755 0.2467556500 1.3096752208
O 3.9815473744 14.4849442935 4.2779148347
O 1.2705774495 7.1190943218 4.1034704917
O 4.1513624004 7.6126056217 1.4841198880
O 3.9815473744 7.6126056217 4.2779148347
O 1.4403924755 7.1190943218 1.3096752208
O 5.0217465726 2.0733395532 0.1490769070
O 0.4001932773 12.6583599484 5.4385133497
O 2.3107766476 12.6583599484 2.6447182409
O 3.1111632023 2.0733395532 2.9428719767
O 0.4001932773 9.4391899669 5.4385133497
O 5.0217465726 5.2925104186 0.1490769070
O 3.1111632023 5.2925104186 2.9428719767
O 2.3107766476 9.4391899669 2.6447182409
O 0.6836524228 3.6829249859 3.3458490446
O 4.7382875084 11.0487749576 2.2417411730
O 3.3946222664 11.0487749576 5.0355362818
O 2.0273175835 3.6829249859 0.5520539358
K_POINTS automatic
  6 3 6 0 0 0
