&control
    calculation='scf'
    prefix='LSCO'
    outdir='./'
    pseudo_dir = '/global/cscratch1/sd/yjshin90/Cobalt_OOV/PP',
    !verbosity = 'high'
    etot_conv_thr = 1.0D-4
    forc_conv_thr = 2.0D-3
    !disk_io='low'
    max_seconds=82800
    wf_collect=.FALSE.
    !tstress=.true.
    !restart_mode='restart'
 /
 &system
    ibrav=0
    nat=36, ntyp=4,
    ecutwfc = 90 , ecutrho =720, !for PAW ecutrho=4*ecutwfc, but need test
    occupations='tetrahedra'!, smearing='gauss', degauss=0.001
    lda_plus_u=.true.  Hubbard_U(2)=3, Hubbard_U(3)=3
    nspin=2
    starting_magnetization(2)=0.4, starting_magnetization(3)=-0.4
    nbnd = 240
    tot_magnetization = 0
 /
 &electrons
 !conv_thr = 1.0D-7
 electron_maxstep = 500
 mixing_mode='plain'
 mixing_beta=0.5D0
 mixing_fixed_ns=5
 startingpot='file'
 diagonalization ='cg'
/
 &ions
/
 &cell
 cell_dofree='xyz'
/
ATOMIC_SPECIES
 Sr 87.62 Sr.pbe-spn-kjpaw_psl.1.0.0.UPF
 Co1 58.9332 Co.pbe-spn-kjpaw_psl.0.3.1.UPF
 Co2 58.9332 Co.pbe-spn-kjpaw_psl.0.3.1.UPF
 O  16 O.pbe-n-kjpaw_psl.1.0.0.UPF


K_POINTS automatic
  6 3 6 0 0 0

CELL_PARAMETERS (angstrom)
   5.566016607   0.000000000   0.000000000
   0.000000000  15.853067962   0.000000000
   0.000000000   0.000000000   5.453299247

ATOMIC_POSITIONS (angstrom)
Sr       5.501155306   1.753542039   2.708184595
La       0.064861301  14.099525923   2.745114652
Sr       2.718237911  14.099530896   0.018491715
Sr       2.847778696   1.753537066   5.434807533
Sr       0.064861301   9.680076020   2.745114652
Sr       5.501155306   6.172991942   2.708184595
Sr       2.847778696   6.172996915   5.434807533
Sr       2.718237911   9.680071047   0.018491715
Co1      0.000000000   0.000000000   0.000000000
Co2      2.783008304   0.000000000   2.726649624
Co1      0.000000000   7.926533981   0.000000000
Co2      2.783008304   7.926533981   2.726649624
Co2      0.321286104   3.963266991   5.253796956
Co2      5.244730587  11.889800972   0.199502291
Co1      3.104623453  11.889800972   2.926253566
Co1      2.461393154   3.963266991   2.527045682
O        4.185869062  15.699201135   1.360036481
O        1.380147545   0.153866827   4.093262924
O        1.401954278   0.153882825   1.365733864
O        4.164062329  15.699185137   4.087565225
O        1.380147545   7.772667154   4.093262924
O        4.185869062   8.080400808   1.360036481
O        4.164062329   8.080416806   4.087565225
O        1.401954278   7.772651156   1.365733864
O        5.315281588   2.268463784   0.061919363
O        0.250735019  13.584603703   5.391379922
O        2.532172664  13.584870489   2.664651851
O        3.033843943   2.268196998   2.788647396
O        0.250735019  10.194998240   5.391379922
O        5.315281588   5.658070198   0.061919363
O        3.033843943   5.658336983   2.788647396
O        2.532172664  10.194731455   2.664651851
O        0.750196376   3.963266991   3.392837975
O        4.815820314  11.889800972   2.060461272
O        3.533432843  11.889800972   4.786990120
O        2.032583765   3.963266991   0.666309127

