&CONTROL
  calculation = 'scf',
/
&SYSTEM
  ibrav = 0,
  nat = 16,
  ntyp = 2,
/
&ELECTRONS
/
&IONS
/
&CELL
/
ATOMIC_SPECIES
  Mg  24.3050 Mg_ONCV_PBE-1.2.upf
  O  15.9994 O_ONCV_PBE-1.2.upf
ATOMIC_POSITIONS crystal
  Mg 0.000000 0.000000 0.000000
  Mg 1.000000 1.000000 0.500000
  Mg 0.000000 0.500000 1.000000
  Mg 1.000000 0.500000 0.500000
  Mg 0.500000 0.000000 1.000000
  Mg 0.500000 0.000000 0.500000
  Mg 0.500000 0.500000 1.000000
  Mg 0.500000 0.500000 0.500000
  O 0.250000 0.250000 0.250000
  O 0.250000 0.250000 0.750000
  O 0.250000 0.750000 0.250000
  O 0.250000 0.750000 0.750000
  O 0.750000 0.250000 0.250000
  O 0.750000 0.250000 0.750000
  O 0.750000 0.750000 0.250000
  O 0.750000 0.750000 0.750000
K_POINTS gamma
CELL_PARAMETERS angstrom
  0.000000 4.217000 4.217000
  4.217000 0.000000 4.217000
  4.217000 4.217000 0.000000